NAME STOCFOR1
ROWS
 N  OBJ
 L  BOUND301
 L  BOUND401
 L  BOUND501
 L  BOUND601
 L  BOUND701
 L  BOUND801
 E  REGEN101
 E  REGEN201
 E  REGEN301
 E  REGEN401
 E  REGEN501
 E  REGEN601
 E  REGEN701
 E  REGEN801
 E  YIELD101
 L  BOUND302
 L  BOUND402
 L  BOUND502
 L  BOUND602
 L  BOUND702
 L  BOUND802
 E  REGEN102
 E  REGEN202
 E  REGEN302
 E  REGEN402
 E  REGEN502
 E  REGEN602
 E  REGEN702
 E  REGEN802
 L  TFLOW102
 G  TFLOW202
 E  YIELD202
 L  BOUND303
 L  BOUND403
 L  BOUND503
 L  BOUND603
 L  BOUND703
 L  BOUND803
 E  REGEN103
 E  REGEN203
 E  REGEN303
 E  REGEN403
 E  REGEN503
 E  REGEN603
 E  REGEN703
 E  REGEN803
 L  TFLOW103
 G  TFLOW203
 E  YIELD303
 L  BOUND304
 L  BOUND404
 L  BOUND504
 L  BOUND604
 L  BOUND704
 L  BOUND804
 E  REGEN104
 E  REGEN204
 E  REGEN304
 E  REGEN404
 E  REGEN504
 E  REGEN604
 E  REGEN704
 E  REGEN804
 L  TFLOW104
 G  TFLOW204
 E  YIELD404
 L  BOUND305
 L  BOUND405
 L  BOUND505
 L  BOUND605
 L  BOUND705
 L  BOUND805
 E  REGEN105
 E  REGEN205
 E  REGEN305
 E  REGEN405
 E  REGEN505
 E  REGEN605
 E  REGEN705
 E  REGEN805
 L  TFLOW105
 G  TFLOW205
 E  YIELD505
 L  BOUND306
 L  BOUND406
 L  BOUND506
 L  BOUND606
 L  BOUND706
 L  BOUND806
 E  REGEN106
 E  REGEN206
 E  REGEN306
 E  REGEN406
 E  REGEN506
 E  REGEN606
 E  REGEN706
 E  REGEN806
 L  TFLOW106
 G  TFLOW206
 E  YIELD606
 L  BOUND307
 L  BOUND407
 L  BOUND507
 L  BOUND607
 L  BOUND707
 L  BOUND807
 E  REGEN107
 E  REGEN207
 E  REGEN307
 E  REGEN407
 E  REGEN507
 E  REGEN607
 E  REGEN707
 E  REGEN807
 L  TFLOW107
 G  TFLOW207
 E  YIELD707
COLUMNS
    CLASS301  BOUND301  1
    CLASS301  YIELD101  16
    CLASS301  REGEN102  -0.93742
    CLASS301  REGEN402  0.93742
    CLASS301  TFLOW102  14.4
    CLASS301  TFLOW202  17.6
    CLASS401  BOUND401  1
    CLASS401  YIELD101  107
    CLASS401  REGEN102  -0.93742
    CLASS401  REGEN502  0.93742
    CLASS401  TFLOW102  96.3
    CLASS401  TFLOW202  117.7
    CLASS501  BOUND501  1
    CLASS501  YIELD101  217
    CLASS501  REGEN102  -0.93742
    CLASS501  REGEN602  0.93742
    CLASS501  TFLOW102  195.3
    CLASS501  TFLOW202  238.7
    CLASS601  BOUND601  1
    CLASS601  YIELD101  275
    CLASS601  REGEN102  -0.93742
    CLASS601  REGEN702  0.93742
    CLASS601  TFLOW102  247.5
    CLASS601  TFLOW202  302.5
    CLASS701  BOUND701  1
    CLASS701  YIELD101  298
    CLASS701  REGEN102  -0.93742
    CLASS701  REGEN802  0.93742
    CLASS701  TFLOW102  268.2
    CLASS701  TFLOW202  327.8
    CLASS801  BOUND801  1
    CLASS801  YIELD101  306
    CLASS801  REGEN102  -0.93742
    CLASS801  REGEN802  0.93742
    CLASS801  TFLOW102  275.4
    CLASS801  TFLOW202  336.6
    STATE101  REGEN101  1
    STATE101  REGEN102  -0.06258
    STATE101  REGEN202  -0.93742
    STATE201  REGEN201  1
    STATE201  REGEN102  -0.06258
    STATE201  REGEN302  -0.93742
    STATE301  BOUND301  -1
    STATE301  REGEN301  1
    STATE301  REGEN102  -0.06258
    STATE301  REGEN402  -0.93742
    STATE401  BOUND401  -1
    STATE401  REGEN401  1
    STATE401  REGEN102  -0.06258
    STATE401  REGEN502  -0.93742
    STATE501  BOUND501  -1
    STATE501  REGEN501  1
    STATE501  REGEN102  -0.06258
    STATE501  REGEN602  -0.93742
    STATE601  BOUND601  -1
    STATE601  REGEN601  1
    STATE601  REGEN102  -0.06258
    STATE601  REGEN702  -0.93742
    STATE701  BOUND701  -1
    STATE701  REGEN701  1
    STATE701  REGEN102  -0.06258
    STATE701  REGEN802  -0.93742
    STATE801  BOUND801  -1
    STATE801  REGEN801  1
    STATE801  REGEN102  -0.06258
    STATE801  REGEN802  -0.93742
    BALAN101  OBJ       -1
    BALAN101  YIELD101  -1
    CLASS302  BOUND302  1
    CLASS302  YIELD202  16
    CLASS302  REGEN103  -0.93742
    CLASS302  REGEN403  0.93742
    CLASS302  TFLOW103  14.4
    CLASS302  TFLOW203  17.6
    CLASS402  BOUND402  1
    CLASS402  YIELD202  107
    CLASS402  REGEN103  -0.93742
    CLASS402  REGEN503  0.93742
    CLASS402  TFLOW103  96.3
    CLASS402  TFLOW203  117.7
    CLASS502  BOUND502  1
    CLASS502  YIELD202  217
    CLASS502  REGEN103  -0.93742
    CLASS502  REGEN603  0.93742
    CLASS502  TFLOW103  195.3
    CLASS502  TFLOW203  238.7
    CLASS602  BOUND602  1
    CLASS602  YIELD202  275
    CLASS602  REGEN103  -0.93742
    CLASS602  REGEN703  0.93742
    CLASS602  TFLOW103  247.5
    CLASS602  TFLOW203  302.5
    CLASS702  BOUND702  1
    CLASS702  YIELD202  298
    CLASS702  REGEN103  -0.93742
    CLASS702  REGEN803  0.93742
    CLASS702  TFLOW103  268.2
    CLASS702  TFLOW203  327.8
    CLASS802  BOUND802  1
    CLASS802  YIELD202  306
    CLASS802  REGEN103  -0.93742
    CLASS802  REGEN803  0.93742
    CLASS802  TFLOW103  275.4
    CLASS802  TFLOW203  336.6
    STATE102  REGEN102  1
    STATE102  REGEN103  -0.06258
    STATE102  REGEN203  -0.93742
    STATE202  REGEN202  1
    STATE202  REGEN103  -0.06258
    STATE202  REGEN303  -0.93742
    STATE302  BOUND302  -1
    STATE302  REGEN302  1
    STATE302  REGEN103  -0.06258
    STATE302  REGEN403  -0.93742
    STATE402  BOUND402  -1
    STATE402  REGEN402  1
    STATE402  REGEN103  -0.06258
    STATE402  REGEN503  -0.93742
    STATE502  BOUND502  -1
    STATE502  REGEN502  1
    STATE502  REGEN103  -0.06258
    STATE502  REGEN603  -0.93742
    STATE602  BOUND602  -1
    STATE602  REGEN602  1
    STATE602  REGEN103  -0.06258
    STATE602  REGEN703  -0.93742
    STATE702  BOUND702  -1
    STATE702  REGEN702  1
    STATE702  REGEN103  -0.06258
    STATE702  REGEN803  -0.93742
    STATE802  BOUND802  -1
    STATE802  REGEN802  1
    STATE802  REGEN103  -0.06258
    STATE802  REGEN803  -0.93742
    BALAN202  OBJ       -0.905063
    BALAN202  TFLOW102  -1
    BALAN202  TFLOW202  -1
    BALAN202  YIELD202  -1
    PNLTY202  OBJ       50
    PNLTY202  TFLOW102  -1
    CLASS303  BOUND303  1
    CLASS303  YIELD303  16
    CLASS303  REGEN104  -0.93742
    CLASS303  REGEN404  0.93742
    CLASS303  TFLOW104  14.4
    CLASS303  TFLOW204  17.6
    CLASS403  BOUND403  1
    CLASS403  YIELD303  107
    CLASS403  REGEN104  -0.93742
    CLASS403  REGEN504  0.93742
    CLASS403  TFLOW104  96.3
    CLASS403  TFLOW204  117.7
    CLASS503  BOUND503  1
    CLASS503  YIELD303  217
    CLASS503  REGEN104  -0.93742
    CLASS503  REGEN604  0.93742
    CLASS503  TFLOW104  195.3
    CLASS503  TFLOW204  238.7
    CLASS603  BOUND603  1
    CLASS603  YIELD303  275
    CLASS603  REGEN104  -0.93742
    CLASS603  REGEN704  0.93742
    CLASS603  TFLOW104  247.5
    CLASS603  TFLOW204  302.5
    CLASS703  BOUND703  1
    CLASS703  YIELD303  298
    CLASS703  REGEN104  -0.93742
    CLASS703  REGEN804  0.93742
    CLASS703  TFLOW104  268.2
    CLASS703  TFLOW204  327.8
    CLASS803  BOUND803  1
    CLASS803  YIELD303  306
    CLASS803  REGEN104  -0.93742
    CLASS803  REGEN804  0.93742
    CLASS803  TFLOW104  275.4
    CLASS803  TFLOW204  336.6
    STATE103  REGEN103  1
    STATE103  REGEN104  -0.06258
    STATE103  REGEN204  -0.93742
    STATE203  REGEN203  1
    STATE203  REGEN104  -0.06258
    STATE203  REGEN304  -0.93742
    STATE303  BOUND303  -1
    STATE303  REGEN303  1
    STATE303  REGEN104  -0.06258
    STATE303  REGEN404  -0.93742
    STATE403  BOUND403  -1
    STATE403  REGEN403  1
    STATE403  REGEN104  -0.06258
    STATE403  REGEN504  -0.93742
    STATE503  BOUND503  -1
    STATE503  REGEN503  1
    STATE503  REGEN104  -0.06258
    STATE503  REGEN604  -0.93742
    STATE603  BOUND603  -1
    STATE603  REGEN603  1
    STATE603  REGEN104  -0.06258
    STATE603  REGEN704  -0.93742
    STATE703  BOUND703  -1
    STATE703  REGEN703  1
    STATE703  REGEN104  -0.06258
    STATE703  REGEN804  -0.93742
    STATE803  BOUND803  -1
    STATE803  REGEN803  1
    STATE803  REGEN104  -0.06258
    STATE803  REGEN804  -0.93742
    BALAN303  OBJ       -0.819139
    BALAN303  TFLOW103  -1
    BALAN303  TFLOW203  -1
    BALAN303  YIELD303  -1
    PNLTY303  OBJ       45.25
    PNLTY303  TFLOW103  -1
    CLASS304  BOUND304  1
    CLASS304  YIELD404  16
    CLASS304  REGEN105  -0.93742
    CLASS304  REGEN405  0.93742
    CLASS304  TFLOW105  14.4
    CLASS304  TFLOW205  17.6
    CLASS404  BOUND404  1
    CLASS404  YIELD404  107
    CLASS404  REGEN105  -0.93742
    CLASS404  REGEN505  0.93742
    CLASS404  TFLOW105  96.3
    CLASS404  TFLOW205  117.7
    CLASS504  BOUND504  1
    CLASS504  YIELD404  217
    CLASS504  REGEN105  -0.93742
    CLASS504  REGEN605  0.93742
    CLASS504  TFLOW105  195.3
    CLASS504  TFLOW205  238.7
    CLASS604  BOUND604  1
    CLASS604  YIELD404  275
    CLASS604  REGEN105  -0.93742
    CLASS604  REGEN705  0.93742
    CLASS604  TFLOW105  247.5
    CLASS604  TFLOW205  302.5
    CLASS704  BOUND704  1
    CLASS704  YIELD404  298
    CLASS704  REGEN105  -0.93742
    CLASS704  REGEN805  0.93742
    CLASS704  TFLOW105  268.2
    CLASS704  TFLOW205  327.8
    CLASS804  BOUND804  1
    CLASS804  YIELD404  306
    CLASS804  REGEN105  -0.93742
    CLASS804  REGEN805  0.93742
    CLASS804  TFLOW105  275.4
    CLASS804  TFLOW205  336.6
    STATE104  REGEN104  1
    STATE104  REGEN105  -0.06258
    STATE104  REGEN205  -0.93742
    STATE204  REGEN204  1
    STATE204  REGEN105  -0.06258
    STATE204  REGEN305  -0.93742
    STATE304  BOUND304  -1
    STATE304  REGEN304  1
    STATE304  REGEN105  -0.06258
    STATE304  REGEN405  -0.93742
    STATE404  BOUND404  -1
    STATE404  REGEN404  1
    STATE404  REGEN105  -0.06258
    STATE404  REGEN505  -0.93742
    STATE504  BOUND504  -1
    STATE504  REGEN504  1
    STATE504  REGEN105  -0.06258
    STATE504  REGEN605  -0.93742
    STATE604  BOUND604  -1
    STATE604  REGEN604  1
    STATE604  REGEN105  -0.06258
    STATE604  REGEN705  -0.93742
    STATE704  BOUND704  -1
    STATE704  REGEN704  1
    STATE704  REGEN105  -0.06258
    STATE704  REGEN805  -0.93742
    STATE804  BOUND804  -1
    STATE804  REGEN804  1
    STATE804  REGEN105  -0.06258
    STATE804  REGEN805  -0.93742
    BALAN404  OBJ       -0.741372
    BALAN404  TFLOW104  -1
    BALAN404  TFLOW204  -1
    BALAN404  YIELD404  -1
    PNLTY404  OBJ       40.96
    PNLTY404  TFLOW104  -1
    CLASS305  BOUND305  1
    CLASS305  YIELD505  16
    CLASS305  REGEN106  -0.93742
    CLASS305  REGEN406  0.93742
    CLASS305  TFLOW106  14.4
    CLASS305  TFLOW206  17.6
    CLASS405  BOUND405  1
    CLASS405  YIELD505  107
    CLASS405  REGEN106  -0.93742
    CLASS405  REGEN506  0.93742
    CLASS405  TFLOW106  96.3
    CLASS405  TFLOW206  117.7
    CLASS505  BOUND505  1
    CLASS505  YIELD505  217
    CLASS505  REGEN106  -0.93742
    CLASS505  REGEN606  0.93742
    CLASS505  TFLOW106  195.3
    CLASS505  TFLOW206  238.7
    CLASS605  BOUND605  1
    CLASS605  YIELD505  275
    CLASS605  REGEN106  -0.93742
    CLASS605  REGEN706  0.93742
    CLASS605  TFLOW106  247.5
    CLASS605  TFLOW206  302.5
    CLASS705  BOUND705  1
    CLASS705  YIELD505  298
    CLASS705  REGEN106  -0.93742
    CLASS705  REGEN806  0.93742
    CLASS705  TFLOW106  268.2
    CLASS705  TFLOW206  327.8
    CLASS805  BOUND805  1
    CLASS805  YIELD505  306
    CLASS805  REGEN106  -0.93742
    CLASS805  REGEN806  0.93742
    CLASS805  TFLOW106  275.4
    CLASS805  TFLOW206  336.6
    STATE105  REGEN105  1
    STATE105  REGEN106  -0.06258
    STATE105  REGEN206  -0.93742
    STATE205  REGEN205  1
    STATE205  REGEN106  -0.06258
    STATE205  REGEN306  -0.93742
    STATE305  BOUND305  -1
    STATE305  REGEN305  1
    STATE305  REGEN106  -0.06258
    STATE305  REGEN406  -0.93742
    STATE405  BOUND405  -1
    STATE405  REGEN405  1
    STATE405  REGEN106  -0.06258
    STATE405  REGEN506  -0.93742
    STATE505  BOUND505  -1
    STATE505  REGEN505  1
    STATE505  REGEN106  -0.06258
    STATE505  REGEN606  -0.93742
    STATE605  BOUND605  -1
    STATE605  REGEN605  1
    STATE605  REGEN106  -0.06258
    STATE605  REGEN706  -0.93742
    STATE705  BOUND705  -1
    STATE705  REGEN705  1
    STATE705  REGEN106  -0.06258
    STATE705  REGEN806  -0.93742
    STATE805  BOUND805  -1
    STATE805  REGEN805  1
    STATE805  REGEN106  -0.06258
    STATE805  REGEN806  -0.93742
    BALAN505  OBJ       -0.670989
    BALAN505  TFLOW105  -1
    BALAN505  TFLOW205  -1
    BALAN505  YIELD505  -1
    PNLTY505  OBJ       37.07
    PNLTY505  TFLOW105  -1
    CLASS306  BOUND306  1
    CLASS306  YIELD606  16
    CLASS306  REGEN107  -0.93742
    CLASS306  REGEN407  0.93742
    CLASS306  TFLOW107  14.4
    CLASS306  TFLOW207  17.6
    CLASS406  BOUND406  1
    CLASS406  YIELD606  107
    CLASS406  REGEN107  -0.93742
    CLASS406  REGEN507  0.93742
    CLASS406  TFLOW107  96.3
    CLASS406  TFLOW207  117.7
    CLASS506  BOUND506  1
    CLASS506  YIELD606  217
    CLASS506  REGEN107  -0.93742
    CLASS506  REGEN607  0.93742
    CLASS506  TFLOW107  195.3
    CLASS506  TFLOW207  238.7
    CLASS606  BOUND606  1
    CLASS606  YIELD606  275
    CLASS606  REGEN107  -0.93742
    CLASS606  REGEN707  0.93742
    CLASS606  TFLOW107  247.5
    CLASS606  TFLOW207  302.5
    CLASS706  BOUND706  1
    CLASS706  YIELD606  298
    CLASS706  REGEN107  -0.93742
    CLASS706  REGEN807  0.93742
    CLASS706  TFLOW107  268.2
    CLASS706  TFLOW207  327.8
    CLASS806  BOUND806  1
    CLASS806  YIELD606  306
    CLASS806  REGEN107  -0.93742
    CLASS806  REGEN807  0.93742
    CLASS806  TFLOW107  275.4
    CLASS806  TFLOW207  336.6
    STATE106  REGEN106  1
    STATE106  REGEN107  -0.06258
    STATE106  REGEN207  -0.93742
    STATE206  REGEN206  1
    STATE206  REGEN107  -0.06258
    STATE206  REGEN307  -0.93742
    STATE306  BOUND306  -1
    STATE306  REGEN306  1
    STATE306  REGEN107  -0.06258
    STATE306  REGEN407  -0.93742
    STATE406  BOUND406  -1
    STATE406  REGEN406  1
    STATE406  REGEN107  -0.06258
    STATE406  REGEN507  -0.93742
    STATE506  BOUND506  -1
    STATE506  REGEN506  1
    STATE506  REGEN107  -0.06258
    STATE506  REGEN607  -0.93742
    STATE606  BOUND606  -1
    STATE606  REGEN606  1
    STATE606  REGEN107  -0.06258
    STATE606  REGEN707  -0.93742
    STATE706  BOUND706  -1
    STATE706  REGEN706  1
    STATE706  REGEN107  -0.06258
    STATE706  REGEN807  -0.93742
    STATE806  BOUND806  -1
    STATE806  REGEN806  1
    STATE806  REGEN107  -0.06258
    STATE806  REGEN807  -0.93742
    BALAN606  OBJ       -0.607287
    BALAN606  TFLOW106  -1
    BALAN606  TFLOW206  -1
    BALAN606  YIELD606  -1
    PNLTY606  OBJ       33.55
    PNLTY606  TFLOW106  -1
    CLASS307  OBJ       198.203
    CLASS307  BOUND307  1
    CLASS307  YIELD707  16
    CLASS407  OBJ       222.975
    CLASS407  BOUND407  1
    CLASS407  YIELD707  107
    CLASS507  OBJ       252.173
    CLASS507  BOUND507  1
    CLASS507  YIELD707  217
    CLASS607  OBJ       281.025
    CLASS607  BOUND607  1
    CLASS607  YIELD707  275
    CLASS707  OBJ       292.467
    CLASS707  BOUND707  1
    CLASS707  YIELD707  298
    CLASS807  OBJ       296.446
    CLASS807  BOUND807  1
    CLASS807  YIELD707  306
    STATE107  OBJ       -159.355
    STATE107  REGEN107  1
    STATE207  OBJ       -177.186
    STATE207  REGEN207  1
    STATE307  OBJ       -198.203
    STATE307  BOUND307  -1
    STATE307  REGEN307  1
    STATE407  OBJ       -222.975
    STATE407  BOUND407  -1
    STATE407  REGEN407  1
    STATE507  OBJ       -252.173
    STATE507  BOUND507  -1
    STATE507  REGEN507  1
    STATE607  OBJ       -281.025
    STATE607  BOUND607  -1
    STATE607  REGEN607  1
    STATE707  OBJ       -292.467
    STATE707  BOUND707  -1
    STATE707  REGEN707  1
    STATE807  OBJ       -296.446
    STATE807  BOUND807  -1
    STATE807  REGEN807  1
    BALAN707  OBJ       -0.549633
    BALAN707  TFLOW107  -1
    BALAN707  TFLOW207  -1
    BALAN707  YIELD707  -1
    PNLTY707  OBJ       30.36
    PNLTY707  TFLOW107  -1
RHS
    RHS1      REGEN101  0.241
    RHS1      REGEN201  0.125
    RHS1      REGEN301  1.404
    RHS1      REGEN401  2.004
    RHS1      REGEN501  9.768
    RHS1      REGEN601  16.385
    RHS1      REGEN701  2.815
    RHS1      REGEN801  61.995
BOUNDS
ENDATA
